p cnf 136 384
c inputs: 1 2 3 4 5 6 7 8
c variables for gates: 9 ... 128
c outputs: 129 130 131 132 133 134 135 136
c random input: -1 -2 3 4 -5 -6 7 -8
9 -1 -5 0
-9 1 0
-9 5 0
10 -2 -5 0
-10 2 0
-10 5 0
11 -3 -5 0
-11 3 0
-11 5 0
12 -4 -5 0
-12 4 0
-12 5 0
13 -1 -6 0
-13 1 0
-13 6 0
14 -2 -6 0
-14 2 0
-14 6 0
15 -3 -6 0
-15 3 0
-15 6 0
16 -4 -6 0
-16 4 0
-16 6 0
17 -1 -7 0
-17 1 0
-17 7 0
18 -2 -7 0
-18 2 0
-18 7 0
19 -3 -7 0
-19 3 0
-19 7 0
20 -4 -7 0
-20 4 0
-20 7 0
21 -1 -8 0
-21 1 0
-21 8 0
22 -2 -8 0
-22 2 0
-22 8 0
23 -3 -8 0
-23 3 0
-23 8 0
24 -4 -8 0
-24 4 0
-24 8 0
25 -10 -13 0
-25 10 0
-25 13 0
26 -10 13 0
-26 10 0
-26 -13 0
27 -13 10 0
-27 13 0
-27 -10 0
28 27 26 0
-28 -27 0
-28 -26 0
29 -14 -11 0
-29 14 0
-29 11 0
30 -11 -17 0
-30 11 0
-30 17 0
31 -14 -17 0
-31 14 0
-31 17 0
32 31 30 0
-32 -31 0
-32 -30 0
33 29 -32 0
-33 -29 0
-33 32 0
34 -14 17 0
-34 14 0
-34 -17 0
35 -17 14 0
-35 17 0
-35 -14 0
36 35 34 0
-36 -35 0
-36 -34 0
37 -11 -36 0
-37 11 0
-37 36 0
38 11 36 0
-38 -11 0
-38 -36 0
39 37 38 0
-39 -37 0
-39 -38 0
40 -12 -15 0
-40 12 0
-40 15 0
41 -12 -18 0
-41 12 0
-41 18 0
42 -18 -15 0
-42 18 0
-42 15 0
43 42 41 0
-43 -42 0
-43 -41 0
44 40 -43 0
-44 -40 0
-44 43 0
45 -15 18 0
-45 15 0
-45 -18 0
46 -18 15 0
-46 18 0
-46 -15 0
47 45 46 0
-47 -45 0
-47 -46 0
48 -12 -47 0
-48 12 0
-48 47 0
49 12 47 0
-49 -12 0
-49 -47 0
50 48 49 0
-50 -48 0
-50 -49 0
51 -16 -19 0
-51 16 0
-51 19 0
52 -16 19 0
-52 16 0
-52 -19 0
53 -19 16 0
-53 19 0
-53 -16 0
54 53 52 0
-54 -53 0
-54 -52 0
55 -25 39 0
-55 25 0
-55 -39 0
56 25 39 0
-56 -25 0
-56 -39 0
57 -25 -39 0
-57 25 0
-57 39 0
58 57 56 0
-58 -57 0
-58 -56 0
59 33 50 0
-59 -33 0
-59 -50 0
60 -21 50 0
-60 21 0
-60 -50 0
61 -21 33 0
-61 21 0
-61 -33 0
62 61 60 0
-62 -61 0
-62 -60 0
63 -62 59 0
-63 62 0
-63 -59 0
64 21 33 0
-64 -21 0
-64 -33 0
65 -21 -33 0
-65 21 0
-65 33 0
66 65 64 0
-66 -65 0
-66 -64 0
67 50 -66 0
-67 -50 0
-67 66 0
68 -50 66 0
-68 50 0
-68 -66 0
69 68 67 0
-69 -68 0
-69 -67 0
70 54 44 0
-70 -54 0
-70 -44 0
71 -22 54 0
-71 22 0
-71 -54 0
72 -22 44 0
-72 22 0
-72 -44 0
73 71 72 0
-73 -71 0
-73 -72 0
74 70 -73 0
-74 -70 0
-74 73 0
75 22 44 0
-75 -22 0
-75 -44 0
76 -22 -44 0
-76 22 0
-76 44 0
77 76 75 0
-77 -76 0
-77 -75 0
78 54 -77 0
-78 -54 0
-78 77 0
79 -54 77 0
-79 54 0
-79 -77 0
80 78 79 0
-80 -78 0
-80 -79 0
81 -20 -51 0
-81 20 0
-81 51 0
82 -20 -23 0
-82 20 0
-82 23 0
83 -23 -51 0
-83 23 0
-83 51 0
84 82 83 0
-84 -82 0
-84 -83 0
85 81 -84 0
-85 -81 0
-85 84 0
86 23 -51 0
-86 -23 0
-86 51 0
87 -23 51 0
-87 23 0
-87 -51 0
88 86 87 0
-88 -86 0
-88 -87 0
89 -20 -88 0
-89 20 0
-89 88 0
90 20 88 0
-90 -20 0
-90 -88 0
91 90 89 0
-91 -90 0
-91 -89 0
92 55 69 0
-92 -55 0
-92 -69 0
93 -55 -69 0
-93 55 0
-93 69 0
94 93 92 0
-94 -93 0
-94 -92 0
95 -55 69 0
-95 55 0
-95 -69 0
96 80 -63 0
-96 -80 0
-96 63 0
97 -80 63 0
-97 80 0
-97 -63 0
98 96 97 0
-98 -96 0
-98 -97 0
99 -98 -95 0
-99 98 0
-99 95 0
100 98 95 0
-100 -98 0
-100 -95 0
101 99 100 0
-101 -99 0
-101 -100 0
102 80 -95 0
-102 -80 0
-102 95 0
103 -95 63 0
-103 95 0
-103 -63 0
104 80 63 0
-104 -80 0
-104 -63 0
105 104 103 0
-105 -104 0
-105 -103 0
106 -105 102 0
-106 105 0
-106 -102 0
107 91 -74 0
-107 -91 0
-107 74 0
108 -91 74 0
-108 91 0
-108 -74 0
109 107 108 0
-109 -107 0
-109 -108 0
110 -109 106 0
-110 109 0
-110 -106 0
111 109 -106 0
-111 -109 0
-111 106 0
112 110 111 0
-112 -110 0
-112 -111 0
113 91 106 0
-113 -91 0
-113 -106 0
114 106 74 0
-114 -106 0
-114 -74 0
115 91 74 0
-115 -91 0
-115 -74 0
116 115 114 0
-116 -115 0
-116 -114 0
117 -116 113 0
-117 116 0
-117 -113 0
118 -24 -85 0
-118 24 0
-118 85 0
119 24 85 0
-119 -24 0
-119 -85 0
120 119 118 0
-120 -119 0
-120 -118 0
121 117 -120 0
-121 -117 0
-121 120 0
122 -117 120 0
-122 117 0
-122 -120 0
123 121 122 0
-123 -121 0
-123 -122 0
124 -24 117 0
-124 24 0
-124 -117 0
125 117 85 0
-125 -117 0
-125 -85 0
126 -24 85 0
-126 24 0
-126 -85 0
127 126 125 0
-127 -126 0
-127 -125 0
128 124 -127 0
-128 -124 0
-128 127 0
-129 9 0
129 -9 0
-130 -28 0
130 28 0
-131 -58 0
131 58 0
-132 -94 0
132 94 0
-133 -101 0
133 101 0
-134 -112 0
134 112 0
-135 -123 0
135 123 0
-136 -128 0
136 128 0
-129 0
-130 0
-131 0
-132 0
133 0
134 0
-135 0
-136 0
